504,59
361,243
597,322
168,240
168,572
444,443
533,554
709,583
773,691
681,826
847,919
927,745
945,770
738,424
769,392
778,336
966,498
972,617
874,140
755,178
708,321
681,376
611,850
524,891
596,379
515,-107
602,-97
765,-127
491,32
600,246
545,139
622,397
593,392
178,327
254,189
